============================[ Problem Statistics ]=============================|                                                                             ||  Number of variables:          4242                                         ||  Number of clauses:           10469                                         ||  Parse time:                   0.87 s                                       ||                                                                             |============================[ Search Statistics ]==============================| Conflicts |          ORIGINAL         |          LEARNT          | Progress ||           |    Vars  Clauses Literals |    Limit  Clauses Lit/Cl |          |===============================================================================|       100 |    1591     6674  1365735 |     2447      100     53 | 62.501 % ||       250 |    1591     6674  1365735 |     2691      250     75 | 62.495 % |===============================================================================restarts              : 4conflicts             : 460            (352 /sec)decisions             : 819            (0.00 % random) (628 /sec)propagations          : 13766          (10549 /sec)conflict literals     : 39100          (94.45 % deleted)CPU time              : 1.305 sSATISFIABLE